coords = array2d(1..65, 1..2, [513, 182, 672, 70, 97, 647, 69, 122, 30, 763,
    415, 47, 491, 289, 738, 612, 872, 957, 310, 907, 314, 249, 559,
    757, 97, 259, 338, 664, 53, 883, 467, 163, 994, 676, 197, 350,
    644, 935, 50, 359, 178, 566, 138, 145, 596, 331, 552, 593, 133,
    849, 94, 491, 850, 209, 618, 126, 775, 664, 383, 940, 481, 631,
    497, 94, 554, 589, 983, 576, 321, 508, 656, 883, 331, 742, 706,
    221, 746, 748, 297, 321, 533, 690, 346, 124, 741, 545, 957, 206,
    184, 396, 353, 495, 479, 941, 666, 16, 626, 950, 618, 59, 167,
    669, 159, 398, 195, 585, 466, 532, 83, 606, 905, 459, 511, 946,
    656, 439, 674, 154, 955, 590, 787, 309, 377, 709, 916, 467, 648,
    205, 722, 42]);

n = 65;

